Minimize
obj: 1x_1 + 3x_2 + 5x_3 + 6x_4 + 7x_5 + 2x_6
Subject To
x_1 + x_4 + x_6  >= 1
x_1 + x_6 + x_3 + x_5  >= 1
x_1 + x_2 + x_3  >= 1
x_4 + x_6 + x_2 + x_3  >= 1
x_4 + x_5 + x_1 + x_2  >= 1
x_6 + x_5 + x_2  >= 1
Bounds
General
Binaries
x_1
x_2
x_3
x_4
x_5
x_6
End
